(set-info :smt-lib-version 2.6)
(set-logic UF)
(set-info :source |Benchmarks from the paper: "Extending Sledgehammer with SMT Solvers" by Jasmin Blanchette, Sascha Bohme, and Lawrence C. Paulson, CADE 2011.  Translated to SMT2 by Andrew Reynolds and Morgan Deters.|)
(set-info :category "industrial")
(set-info :status unknown)
(declare-sort S1 0)
(declare-sort S2 0)
(declare-sort S3 0)
(declare-sort S4 0)
(declare-sort S5 0)
(declare-sort S6 0)
(declare-sort S7 0)
(declare-sort S8 0)
(declare-sort S9 0)
(declare-sort S10 0)
(declare-sort S11 0)
(declare-sort S12 0)
(declare-sort S13 0)
(declare-sort S14 0)
(declare-sort S15 0)
(declare-sort S16 0)
(declare-sort S17 0)
(declare-sort S18 0)
(declare-sort S19 0)
(declare-sort S20 0)
(declare-sort S21 0)
(declare-sort S22 0)
(declare-sort S23 0)
(declare-sort S24 0)
(declare-sort S25 0)
(declare-sort S26 0)
(declare-sort S27 0)
(declare-sort S28 0)
(declare-sort S29 0)
(declare-sort S30 0)
(declare-sort S31 0)
(declare-sort S32 0)
(declare-sort S33 0)
(declare-sort S34 0)
(declare-sort S35 0)
(declare-sort S36 0)
(declare-sort S37 0)
(declare-sort S38 0)
(declare-fun f1 () S1)
(declare-fun f2 () S1)
(declare-fun f3 (S3 S2) S1)
(declare-fun f4 (S4 S2) S3)
(declare-fun f5 () S4)
(declare-fun f6 (S6 S7 S8 S9 S5) S1)
(declare-fun f7 () S6)
(declare-fun f8 () S7)
(declare-fun f9 () S8)
(declare-fun f10 (S10 S9) S9)
(declare-fun f11 (S11 S12) S10)
(declare-fun f12 () S11)
(declare-fun f13 (S13 S14) S12)
(declare-fun f14 () S13)
(declare-fun f15 () S14)
(declare-fun f16 () S9)
(declare-fun f17 (S4 S5 S5) S1)
(declare-fun f18 (S6) S4)
(declare-fun f19 () S5)
(declare-fun f20 (S15 S16) S1)
(declare-fun f21 (S17 S18) S15)
(declare-fun f22 (S19 S18) S17)
(declare-fun f23 () S19)
(declare-fun f24 (S20 S21) S18)
(declare-fun f25 (S22 S9) S20)
(declare-fun f26 () S22)
(declare-fun f27 () S9)
(declare-fun f28 (S23 S24) S21)
(declare-fun f29 (S25 S7) S23)
(declare-fun f30 () S25)
(declare-fun f31 () S7)
(declare-fun f32 () S24)
(declare-fun f33 () S24)
(declare-fun f34 (S6) S16)
(declare-fun f35 (S26 S21) S1)
(declare-fun f36 (S27 S8) S26)
(declare-fun f37 (S6) S27)
(declare-fun f38 (S28 S6) S1)
(declare-fun f39 () S28)
(declare-fun f40 (S29 S5) S5)
(declare-fun f41 (S30 S2) S29)
(declare-fun f42 () S30)
(declare-fun f43 (S33 S31) S31)
(declare-fun f44 (S34 S32) S33)
(declare-fun f45 () S34)
(declare-fun f46 (S36 S35) S35)
(declare-fun f47 (S37 S31) S36)
(declare-fun f48 () S37)
(declare-fun f49 (S6 S7) S1)
(declare-fun f50 (S6 S7 S24 S8) S1)
(declare-fun f51 (S21) S7)
(declare-fun f52 (S16 S15) S1)
(declare-fun f53 (S38 S18) S1)
(assert (not (= f1 f2)))
(assert (forall ((?v0 S2) (?v1 S2)) (= (= (f3 (f4 f5 ?v0) ?v1) f1) (= ?v0 ?v1))))
(assert (not (exists ((?v0 S5)) (and (= (f6 f7 f8 f9 (f10 (f11 f12 (f13 f14 f15)) f16) ?v0) f1) (= (f17 (f18 f7) ?v0 f19) f1)))))
(assert (= (f20 (f21 (f22 f23 (f24 (f25 f26 f27) (f28 (f29 f30 f31) f32))) (f24 (f25 f26 f16) (f28 (f29 f30 f8) f33))) (f34 f7)) f1))
(assert (forall ((?v0 S8) (?v1 S5)) (=> (= (f35 (f36 (f37 f7) ?v0) (f28 (f29 f30 f31) f32)) f1) (=> (= (f6 f7 f31 ?v0 f27 ?v1) f1) (exists ((?v2 S5)) (and (= (f6 f7 f8 ?v0 f16 ?v2) f1) (= (f17 (f18 f7) ?v2 ?v1) f1)))))))
(assert (= (f35 (f36 (f37 f7) f9) (f28 (f29 f30 f31) f32)) f1))
(assert (= (f6 f7 f31 f9 (f10 (f11 f12 (f13 f14 f15)) f27) f19) f1))
(assert (= (f35 (f36 (f37 f7) f9) (f28 (f29 f30 f31) f32)) f1))
(assert (= (f6 f7 f31 f9 (f10 (f11 f12 (f13 f14 f15)) f27) f19) f1))
(assert (forall ((?v0 S8) (?v1 S5)) (=> (= (f35 (f36 (f37 f7) ?v0) (f28 (f29 f30 f31) f32)) f1) (=> (= (f6 f7 f31 ?v0 f27 ?v1) f1) (exists ((?v2 S5)) (and (= (f6 f7 f8 ?v0 f16 ?v2) f1) (= (f17 (f18 f7) ?v2 ?v1) f1)))))))
(assert (= (f20 (f21 (f22 f23 (f24 (f25 f26 f27) (f28 (f29 f30 f31) f32))) (f24 (f25 f26 f16) (f28 (f29 f30 f8) f33))) (f34 f7)) f1))
(assert (forall ((?v0 S6) (?v1 S5)) (= (f17 (f18 ?v0) ?v1 ?v1) f1)))
(assert (forall ((?v0 S6) (?v1 S2)) (= (f3 (f4 (f18 ?v0) ?v1) ?v1) f1)))
(assert (= (f38 f39 f7) f1))
(assert (forall ((?v0 S6) (?v1 S5) (?v2 S5) (?v3 S5)) (let ((?v_0 (f18 ?v0))) (=> (= (f17 ?v_0 ?v1 ?v2) f1) (=> (= (f17 ?v_0 ?v2 ?v3) f1) (= (f17 ?v_0 ?v1 ?v3) f1))))))
(assert (forall ((?v0 S4) (?v1 S2) (?v2 S5) (?v3 S2) (?v4 S5)) (= (= (f17 ?v0 (f40 (f41 f42 ?v1) ?v2) (f40 (f41 f42 ?v3) ?v4)) f1) (and (= (f3 (f4 ?v0 ?v1) ?v3) f1) (= (f17 ?v0 ?v2 ?v4) f1)))))
(assert (forall ((?v0 S6) (?v1 S2) (?v2 S2) (?v3 S2)) (let ((?v_0 (f18 ?v0))) (let ((?v_1 (f4 ?v_0 ?v1))) (=> (= (f3 ?v_1 ?v2) f1) (=> (= (f3 (f4 ?v_0 ?v2) ?v3) f1) (= (f3 ?v_1 ?v3) f1)))))))
(assert (forall ((?v0 S5) (?v1 S5)) (= (= ?v0 ?v1) (= (f17 f5 ?v0 ?v1) f1))))
(assert (forall ((?v0 S4) (?v1 S5) (?v2 S2) (?v3 S5)) (= (= (f17 ?v0 ?v1 (f40 (f41 f42 ?v2) ?v3)) f1) (exists ((?v4 S2) (?v5 S5)) (and (= ?v1 (f40 (f41 f42 ?v4) ?v5)) (and (= (f3 (f4 ?v0 ?v4) ?v2) f1) (= (f17 ?v0 ?v5 ?v3) f1)))))))
(assert (forall ((?v0 S4) (?v1 S2) (?v2 S5) (?v3 S5)) (= (= (f17 ?v0 (f40 (f41 f42 ?v1) ?v2) ?v3) f1) (exists ((?v4 S2) (?v5 S5)) (and (= ?v3 (f40 (f41 f42 ?v4) ?v5)) (and (= (f3 (f4 ?v0 ?v1) ?v4) f1) (= (f17 ?v0 ?v2 ?v5) f1)))))))
(assert (forall ((?v0 S14) (?v1 S14)) (= (= (f13 f14 ?v0) (f13 f14 ?v1)) (= ?v0 ?v1))))
(assert (forall ((?v0 S5) (?v1 S2)) (not (= ?v0 (f40 (f41 f42 ?v1) ?v0)))))
(assert (forall ((?v0 S31) (?v1 S32)) (not (= ?v0 (f43 (f44 f45 ?v1) ?v0)))))
(assert (forall ((?v0 S35) (?v1 S31)) (not (= ?v0 (f46 (f47 f48 ?v1) ?v0)))))
(assert (forall ((?v0 S9) (?v1 S12)) (not (= ?v0 (f10 (f11 f12 ?v1) ?v0)))))
(assert (forall ((?v0 S2) (?v1 S5)) (not (= (f40 (f41 f42 ?v0) ?v1) ?v1))))
(assert (forall ((?v0 S32) (?v1 S31)) (not (= (f43 (f44 f45 ?v0) ?v1) ?v1))))
(assert (forall ((?v0 S31) (?v1 S35)) (not (= (f46 (f47 f48 ?v0) ?v1) ?v1))))
(assert (forall ((?v0 S12) (?v1 S9)) (not (= (f10 (f11 f12 ?v0) ?v1) ?v1))))
(assert (forall ((?v0 S2) (?v1 S5) (?v2 S2) (?v3 S5)) (= (= (f40 (f41 f42 ?v0) ?v1) (f40 (f41 f42 ?v2) ?v3)) (and (= ?v0 ?v2) (= ?v1 ?v3)))))
(assert (forall ((?v0 S32) (?v1 S31) (?v2 S32) (?v3 S31)) (= (= (f43 (f44 f45 ?v0) ?v1) (f43 (f44 f45 ?v2) ?v3)) (and (= ?v0 ?v2) (= ?v1 ?v3)))))
(assert (forall ((?v0 S31) (?v1 S35) (?v2 S31) (?v3 S35)) (= (= (f46 (f47 f48 ?v0) ?v1) (f46 (f47 f48 ?v2) ?v3)) (and (= ?v0 ?v2) (= ?v1 ?v3)))))
(assert (forall ((?v0 S12) (?v1 S9) (?v2 S12) (?v3 S9)) (= (= (f10 (f11 f12 ?v0) ?v1) (f10 (f11 f12 ?v2) ?v3)) (and (= ?v0 ?v2) (= ?v1 ?v3)))))
(assert (forall ((?v0 S9) (?v1 S21) (?v2 S9) (?v3 S21) (?v4 S6) (?v5 S14)) (let ((?v_1 (f34 ?v4)) (?v_0 (f11 f12 (f13 f14 ?v5)))) (=> (= (f20 (f21 (f22 f23 (f24 (f25 f26 ?v0) ?v1)) (f24 (f25 f26 ?v2) ?v3)) ?v_1) f1) (= (f20 (f21 (f22 f23 (f24 (f25 f26 (f10 ?v_0 ?v0)) ?v1)) (f24 (f25 f26 (f10 ?v_0 ?v2)) ?v3)) ?v_1) f1)))))
(assert (forall ((?v0 S9) (?v1 S7) (?v2 S24) (?v3 S9) (?v4 S7) (?v5 S24) (?v6 S6) (?v7 S8) (?v8 S5)) (=> (= (f20 (f21 (f22 f23 (f24 (f25 f26 ?v0) (f28 (f29 f30 ?v1) ?v2))) (f24 (f25 f26 ?v3) (f28 (f29 f30 ?v4) ?v5))) (f34 ?v6)) f1) (=> (= (f6 ?v6 ?v1 ?v7 ?v0 ?v8) f1) (=> (= (f49 ?v6 ?v1) f1) (= (f49 ?v6 ?v4) f1))))))
(assert (forall ((?v0 S6) (?v1 S2) (?v2 S5) (?v3 S5)) (= (= (f17 (f18 ?v0) (f40 (f41 f42 ?v1) ?v2) ?v3) f1) (exists ((?v4 S2) (?v5 S5)) (let ((?v_0 (f18 ?v0))) (and (= ?v3 (f40 (f41 f42 ?v4) ?v5)) (and (= (f3 (f4 ?v_0 ?v1) ?v4) f1) (= (f17 ?v_0 ?v2 ?v5) f1))))))))
(assert (forall ((?v0 S9) (?v1 S7) (?v2 S24) (?v3 S9) (?v4 S7) (?v5 S24) (?v6 S6) (?v7 S8) (?v8 S5)) (=> (= (f20 (f21 (f22 f23 (f24 (f25 f26 ?v0) (f28 (f29 f30 ?v1) ?v2))) (f24 (f25 f26 ?v3) (f28 (f29 f30 ?v4) ?v5))) (f34 ?v6)) f1) (=> (= (f6 ?v6 ?v1 ?v7 ?v0 ?v8) f1) (=> (= (f50 ?v6 ?v1 ?v2 ?v7) f1) (= (f50 ?v6 ?v4 ?v5 ?v7) f1))))))
(assert (forall ((?v0 S9) (?v1 S21) (?v2 S9) (?v3 S21) (?v4 S6) (?v5 S8) (?v6 S5)) (let ((?v_0 (f36 (f37 ?v4) ?v5))) (=> (= (f20 (f21 (f22 f23 (f24 (f25 f26 ?v0) ?v1)) (f24 (f25 f26 ?v2) ?v3)) (f34 ?v4)) f1) (=> (= (f6 ?v4 (f51 ?v1) ?v5 ?v0 ?v6) f1) (=> (= (f35 ?v_0 ?v1) f1) (= (f35 ?v_0 ?v3) f1)))))))
(assert (forall ((?v0 S16) (?v1 S15)) (=> (forall ((?v2 S18) (?v3 S9) (?v4 S7) (?v5 S24)) (= (f52 ?v0 (f21 (f22 f23 ?v2) (f24 (f25 f26 ?v3) (f28 (f29 f30 ?v4) ?v5)))) f1)) (= (f52 ?v0 ?v1) f1))))
(assert (forall ((?v0 S7) (?v1 S24) (?v2 S7) (?v3 S24)) (=> (= (f28 (f29 f30 ?v0) ?v1) (f28 (f29 f30 ?v2) ?v3)) (=> (=> (= ?v0 ?v2) (=> (= ?v1 ?v3) false)) false))))
(assert (forall ((?v0 S9) (?v1 S21) (?v2 S9) (?v3 S21)) (=> (= (f24 (f25 f26 ?v0) ?v1) (f24 (f25 f26 ?v2) ?v3)) (=> (=> (= ?v0 ?v2) (=> (= ?v1 ?v3) false)) false))))
(assert (forall ((?v0 S18) (?v1 S18) (?v2 S18) (?v3 S18)) (=> (= (f21 (f22 f23 ?v0) ?v1) (f21 (f22 f23 ?v2) ?v3)) (=> (=> (= ?v0 ?v2) (=> (= ?v1 ?v3) false)) false))))
(assert (forall ((?v0 S7) (?v1 S24) (?v2 S7) (?v3 S24)) (= (= (f28 (f29 f30 ?v0) ?v1) (f28 (f29 f30 ?v2) ?v3)) (and (= ?v0 ?v2) (= ?v1 ?v3)))))
(assert (forall ((?v0 S9) (?v1 S21) (?v2 S9) (?v3 S21)) (= (= (f24 (f25 f26 ?v0) ?v1) (f24 (f25 f26 ?v2) ?v3)) (and (= ?v0 ?v2) (= ?v1 ?v3)))))
(assert (forall ((?v0 S18) (?v1 S18) (?v2 S18) (?v3 S18)) (= (= (f21 (f22 f23 ?v0) ?v1) (f21 (f22 f23 ?v2) ?v3)) (and (= ?v0 ?v2) (= ?v1 ?v3)))))
(assert (forall ((?v0 S26)) (= (forall ((?v1 S21)) (= (f35 ?v0 ?v1) f1)) (forall ((?v1 S7) (?v2 S24)) (= (f35 ?v0 (f28 (f29 f30 ?v1) ?v2)) f1)))))
(assert (forall ((?v0 S38)) (= (forall ((?v1 S18)) (= (f53 ?v0 ?v1) f1)) (forall ((?v1 S9) (?v2 S21)) (= (f53 ?v0 (f24 (f25 f26 ?v1) ?v2)) f1)))))
(assert (forall ((?v0 S16)) (= (forall ((?v1 S15)) (= (f52 ?v0 ?v1) f1)) (forall ((?v1 S18) (?v2 S18)) (= (f52 ?v0 (f21 (f22 f23 ?v1) ?v2)) f1)))))
(assert (forall ((?v0 S15)) (=> (forall ((?v1 S18) (?v2 S9) (?v3 S7) (?v4 S24)) (=> (= ?v0 (f21 (f22 f23 ?v1) (f24 (f25 f26 ?v2) (f28 (f29 f30 ?v3) ?v4)))) false)) false)))
(check-sat)
(exit)
